import Airlock.dzn;
import armor/AirlockArmor.dzn;
import armor/DoorArmor.dzn;
import armor/VacuumArmor.dzn;
import utils/timer.dzn;

namespace example.dezyne {

component AirlockSystem
{
    provides IAirlockExternal api;

    requires IDoorExternal doorInside;
    requires IDoorExternal doorOutside;
    requires IVacuumExternal vacuum;

    system
    {
        Airlock airlock;

        airlock.doorInside <=> doorInsideArmor.strict;
        airlock.doorOutside <=> doorOutsideArmor.strict;
        airlock.vacuum <=> vacuumArmor.strict;

        utils.PromiseFC airlockPromise;

        armor.AirlockArmor armor;
        airlock.api <=> armor.strict;
        armor.unsafe <=> api;
        armor.promise <=> airlockPromise.api;

        armor.DoorArmor doorInsideArmor;
        utils.TimerFC doorInsideTimer;
        doorInsideArmor.unsafe <=> doorInside;
        doorInsideArmor.timer <=> doorInsideTimer.api;

        armor.DoorArmor doorOutsideArmor;
        utils.TimerFC doorOutsideTimer;
        doorOutsideArmor.unsafe <=> doorOutside;
        doorOutsideArmor.timer <=> doorOutsideTimer.api;

        armor.VacuumArmor vacuumArmor;
        utils.TimerFC vacuumTimer;
        vacuumArmor.unsafe <=> vacuum;
        vacuumArmor.timer <=> vacuumTimer.api;
    }
}

}
